% seed = 0

mint = 22;
% maxt = 64;

nActs = 32;
dur = [0,2,3,3,2,1,1,2,2,4,1,1,1,2,1,3,2,3,2,2,3,1,4,2,3,1,4,1,4,2,1,0];

nSkills = 15;
sreq = [| 0,0,0,0,0,0,0,0,0,0,0,0,0,0,0,
	| 0,0,0,0,0,0,1,0,0,0,0,1,1,1,0,
	| 0,0,1,0,0,0,0,3,2,0,0,0,0,0,0,
	| 0,0,1,0,2,1,0,1,0,0,0,0,0,1,0,
	| 0,0,0,0,1,0,1,0,0,1,0,1,0,0,0,
	| 0,0,0,0,0,0,0,0,0,0,0,0,1,0,0,
	| 0,0,1,0,0,2,0,0,2,0,0,0,0,1,0,
	| 0,0,1,0,0,0,0,0,0,0,0,1,0,1,0,
	| 0,0,0,0,0,1,0,0,2,0,0,1,0,0,0,
	| 0,0,0,0,0,0,0,1,0,0,0,1,0,0,0,
	| 0,0,1,0,0,0,0,1,1,1,0,0,0,1,0,
	| 0,0,2,0,0,0,0,0,1,0,0,0,0,0,0,
	| 0,0,0,0,0,0,2,0,0,0,0,0,0,0,0,
	| 1,0,0,0,1,0,0,0,0,1,1,1,0,2,0,
	| 0,0,0,0,0,0,0,1,0,1,2,1,0,0,0,
	| 0,0,1,0,1,0,0,0,0,0,0,0,0,0,0,
	| 0,0,1,0,0,0,0,1,0,0,0,0,0,0,0,
	| 0,0,0,0,0,1,0,0,0,0,0,0,0,0,0,
	| 0,0,0,1,0,1,1,0,0,0,0,0,0,1,0,
	| 0,0,0,0,0,0,0,0,2,0,1,0,0,0,0,
	| 0,0,0,0,0,0,0,0,0,0,0,0,0,1,0,
	| 0,1,0,0,0,0,0,0,0,1,0,0,0,0,1,
	| 0,0,1,0,0,0,0,1,1,0,1,0,0,0,0,
	| 0,0,1,0,0,0,1,0,1,0,0,0,0,0,0,
	| 0,0,0,0,1,0,1,0,1,0,1,1,0,1,0,
	| 0,0,0,0,0,0,0,0,1,0,2,0,0,1,0,
	| 0,0,1,0,0,0,0,1,1,0,0,0,1,0,0,
	| 0,0,2,0,0,1,0,0,0,0,0,0,0,0,0,
	| 0,0,1,0,0,0,0,1,0,0,0,0,0,0,0,
	| 0,0,0,0,0,0,0,0,0,0,0,1,0,0,0,
	| 0,0,1,0,0,0,0,1,1,0,0,1,0,0,0,
	| 0,0,0,0,0,0,0,0,0,0,0,0,0,0,0, |];

% SumOfsreq = 105;

nResources = 19;
mastery = [| true,true,true,false,true,true,false,false,false,true,true,true,false,false,false,
	| false,false,true,false,false,false,false,false,false,false,false,false,false,false,true,
	| false,false,false,false,false,false,true,true,true,false,false,false,false,false,false,
	| false,false,false,false,false,false,false,false,false,false,false,false,false,true,true,
	| false,false,true,false,false,false,true,true,true,false,false,false,true,true,true,
	| false,false,false,false,false,false,false,true,true,false,false,false,false,false,false,
	| false,true,true,false,false,false,false,false,false,false,false,false,false,false,false,
	| false,false,false,false,false,false,false,false,false,false,false,false,true,true,true,
	| false,false,false,false,false,false,false,true,true,true,true,true,false,true,true,
	| false,false,false,false,false,false,false,false,false,false,false,true,false,false,false,
	| false,false,false,false,true,true,false,false,false,false,false,false,false,false,false,
	| false,false,false,false,false,false,false,false,false,true,true,true,false,false,false,
	| false,true,true,true,true,true,false,false,false,false,true,true,false,false,true,
	| false,false,false,false,false,false,true,true,true,false,false,false,false,false,false,
	| false,false,false,false,false,false,true,true,true,false,false,false,false,false,false,
	| false,false,false,false,false,false,true,true,true,false,false,false,false,false,false,
	| false,false,false,false,false,false,false,false,true,false,false,false,false,false,false,
	| false,false,false,false,false,false,false,false,true,true,true,true,true,true,true,
	| false,true,true,false,false,false,false,false,false,false,false,false,false,false,false, |];

nPrecs = 48;
pred = [1,1,1,2,2,2,3,3,4,4,4,5,6,6,7,7,7,8,8,9,10,10,10,11,12,13,14,14,15,16,17,17,18,19,20,21,21,22,23,24,25,26,27,27,28,29,30,31];
succ = [2,3,4,27,20,7,10,5,9,6,8,12,28,29,25,15,16,11,24,26,17,13,14,27,16,31,18,19,22,30,26,27,25,21,24,22,23,30,25,26,31,30,28,29,31,32,32,32];

nUnrels = 304;
unpred = [2,2,2,2,2,2,2,2,2,2,2,2,2,2,2,2,3,3,3,3,3,3,3,3,3,4,4,4,4,4,4,4,4,4,4,4,4,4,4,4,4,5,5,5,5,5,5,5,5,5,5,5,5,5,5,5,5,5,5,5,5,5,5,5,6,6,6,6,6,6,6,6,6,6,6,6,6,6,6,6,6,6,6,6,6,6,7,7,7,7,7,7,7,7,7,7,7,7,7,7,7,7,7,7,8,8,8,8,8,8,8,8,8,8,8,8,8,8,8,9,9,9,9,9,9,9,9,9,9,9,9,9,9,9,9,9,9,9,9,10,10,10,10,10,10,11,11,11,11,11,11,11,11,11,11,11,11,11,11,11,11,12,12,12,12,12,12,12,12,12,12,12,12,12,12,12,12,12,13,13,13,13,13,13,13,13,13,13,13,13,13,13,13,13,13,14,14,14,14,14,14,14,14,14,15,15,15,15,15,15,15,15,15,15,15,15,15,15,16,16,16,16,16,16,16,16,16,16,16,16,16,16,17,17,17,17,17,17,17,17,18,18,18,18,18,18,18,18,18,18,18,19,19,19,19,19,19,20,20,20,20,20,20,20,20,21,21,21,21,21,22,22,22,22,22,22,22,22,23,23,23,23,23,23,24,24,24,24,24,25,25,25,25,25,26,26,26,26,27,28,28,29,29,30];
unsucc = [3,4,5,6,8,9,10,11,12,13,14,17,18,19,21,23,4,6,7,8,9,11,15,20,24,5,7,10,12,13,14,15,16,17,18,19,20,21,22,23,25,6,7,8,9,10,11,13,14,15,17,18,19,20,21,22,23,24,25,26,27,28,29,31,7,8,9,10,11,12,13,14,15,16,17,18,19,20,21,22,23,24,25,26,27,30,8,9,10,11,12,13,14,17,18,19,20,21,23,24,26,27,28,29,9,10,12,13,14,15,16,17,18,19,20,21,22,23,25,10,11,12,13,14,15,16,17,18,19,20,21,22,23,24,25,27,28,29,31,11,12,15,16,20,24,12,13,14,15,16,17,18,19,20,21,22,23,24,25,26,30,13,14,15,17,18,19,20,21,22,23,24,25,26,27,28,29,31,14,15,16,17,18,19,20,21,22,23,24,25,26,27,28,29,30,15,16,17,20,24,26,27,28,29,16,17,18,19,20,21,23,24,25,26,27,28,29,31,17,18,19,20,21,22,23,24,25,26,27,28,29,31,18,19,20,21,22,23,24,25,19,20,21,22,23,24,26,27,28,29,30,20,24,26,27,28,29,21,22,23,25,27,28,29,31,24,26,27,28,29,23,24,25,26,27,28,29,31,24,26,27,28,29,30,25,27,28,29,31,26,27,28,29,30,27,28,29,31,30,29,30,30,31,31];

USEFUL_RES = [{},
	{1,3,4,5,8,9,10,12,13,14,15,16,18},
	{1,2,3,5,6,7,9,13,14,15,16,17,18,19},
	{1,2,3,4,5,6,7,8,9,11,13,14,15,16,18,19},
	{1,3,5,9,10,11,12,13,14,15,16,18},
	{5,8,18},
	{1,2,3,4,5,6,7,8,9,11,13,14,15,16,17,18,19},
	{1,2,4,5,7,8,9,10,12,13,18,19},
	{1,3,5,6,9,10,11,12,13,14,15,16,17,18},
	{1,3,5,6,9,10,12,13,14,15,16,18},
	{1,2,3,4,5,6,7,8,9,12,13,14,15,16,17,18,19},
	{1,2,3,5,6,7,9,13,14,15,16,17,18,19},
	{3,5,14,15,16},
	{1,4,5,8,9,10,11,12,13,18},
	{1,3,5,6,9,10,12,13,14,15,16,18},
	{1,2,5,7,11,13,19},
	{1,2,3,5,6,7,9,13,14,15,16,19},
	{1,11,13},
	{1,3,4,5,8,9,11,13,14,15,16,18},
	{1,3,5,6,9,12,13,14,15,16,17,18},
	{4,5,8,9,18},
	{1,2,4,5,7,8,9,12,13,18,19},
	{1,2,3,5,6,7,9,12,13,14,15,16,17,18,19},
	{1,2,3,5,6,7,9,13,14,15,16,17,18,19},
	{1,3,4,5,6,8,9,10,11,12,13,14,15,16,17,18},
	{1,3,4,5,6,8,9,12,13,14,15,16,17,18},
	{1,2,3,5,6,7,8,9,13,14,15,16,17,18,19},
	{1,2,5,7,11,13,19},
	{1,2,3,5,6,7,9,13,14,15,16,19},
	{1,9,10,12,13,18},
	{1,2,3,5,6,7,9,10,12,13,14,15,16,17,18,19},
	{}];

POTENTIAL_ACT = [{2,3,4,5,7,8,9,10,11,12,14,15,16,17,18,19,20,22,23,24,25,26,27,28,29,30,31},
	{3,4,7,8,11,12,16,17,22,23,24,27,28,29,31},
	{2,3,4,5,7,9,10,11,12,13,15,17,19,20,23,24,25,26,27,29,31},
	{2,4,7,8,11,14,19,21,22,25,26},
	{2,3,4,5,6,7,8,9,10,11,12,13,14,15,16,17,19,20,21,22,23,24,25,26,27,28,29,31},
	{3,4,7,9,10,11,12,15,17,20,23,24,25,26,27,29,31},
	{3,4,7,8,11,12,16,17,22,23,24,27,28,29,31},
	{2,4,6,7,8,11,14,19,21,22,25,26,27},
	{2,3,4,5,7,8,9,10,11,12,14,15,17,19,20,21,22,23,24,25,26,27,29,30,31},
	{2,5,8,9,10,14,15,25,30,31},
	{4,5,7,9,14,16,18,19,25,28},
	{2,5,8,9,10,11,14,15,20,22,23,25,26,30,31},
	{2,3,4,5,7,8,9,10,11,12,14,15,16,17,18,19,20,22,23,24,25,26,27,28,29,30,31},
	{2,3,4,5,7,9,10,11,12,13,15,17,19,20,23,24,25,26,27,29,31},
	{2,3,4,5,7,9,10,11,12,13,15,17,19,20,23,24,25,26,27,29,31},
	{2,3,4,5,7,9,10,11,12,13,15,17,19,20,23,24,25,26,27,29,31},
	{3,7,9,11,12,20,23,24,25,26,27,31},
	{2,3,4,5,6,7,8,9,10,11,12,14,15,19,20,21,22,23,24,25,26,27,30,31},
	{3,4,7,8,11,12,16,17,22,23,24,27,28,29,31}];
